\ENCODING=ISO-8859-1
\Problem name: ilog.cplex

Maximize
 obj: 927 x(0)#0 + 366 x(1)#1 + 972 x(2)#2 + 437 x(3)#3 + 925 x(4)#4
      + 555 x(5)#5 + 517 x(6)#6 + 775 x(7)#7 + 674 x(8)#8 + 807 x(9)#9
      + 806 x(10)#10 + 628 x(11)#11 + 801 x(12)#12 + 545 x(13)#13
      + 876 x(14)#14 + 516 x(15)#15 + 902 x(16)#16 + 770 x(17)#17
      + 1013 x(18)#18 + 692 x(19)#19 + 485 x(20)#20 + 893 x(21)#21
      + 693 x(22)#22 + 718 x(23)#23 + 795 x(24)#24 + 878 x(25)#25
      + 661 x(26)#26 + 848 x(27)#27 + 940 x(28)#28 + 495 x(29)#29
      + 814 x(30)#30 + 966 x(31)#31 + 1017 x(32)#32 + 893 x(33)#33
      + 654 x(34)#34 + 702 x(35)#35 + 1070 x(36)#36 + 1018 x(37)#37
      + 894 x(38)#38 + 773 x(39)#39 + 739 x(40)#40 + 528 x(41)#41
      + 576 x(42)#42 + 649 x(43)#43 + 545 x(44)#44 + 701 x(45)#45
      + 810 x(46)#46 + 883 x(47)#47 + 831 x(48)#48 + 738 x(49)#49
      + 1144 x(50)#50 + 1250 x(51)#51 + 593 x(52)#52 + 738 x(53)#53
      + 786 x(54)#54 + 547 x(55)#55 + 936 x(56)#56 + 376 x(57)#57
      + 769 x(58)#58 + 1017 x(59)#59 + 521 x(60)#60 + 669 x(61)#61
      + 931 x(62)#62 + 894 x(63)#63 + 382 x(64)#64 + 964 x(65)#65
      + 1168 x(66)#66 + 838 x(67)#67 + 936 x(68)#68 + 957 x(69)#69
      + 859 x(70)#70 + 814 x(71)#71 + 715 x(72)#72 + 481 x(73)#73
      + 920 x(74)#74 + 473 x(75)#75 + 433 x(76)#76 + 534 x(77)#77
      + 639 x(78)#78 + 988 x(79)#79 + 1081 x(80)#80 + 559 x(81)#81
      + 583 x(82)#82 + 795 x(83)#83 + 818 x(84)#84 + 1065 x(85)#85
      + 284 x(86)#86 + 946 x(87)#87 + 719 x(88)#88 + 742 x(89)#89
      + 579 x(90)#90 + 654 x(91)#91 + 501 x(92)#92 + 580 x(93)#93
      + 675 x(94)#94 + 688 x(95)#95 + 777 x(96)#96 + 565 x(97)#97
      + 675 x(98)#98 + 766 x(99)#99 + 816 x(100)#100 + 749 x(101)#101
      + 874 x(102)#102 + 627 x(103)#103 + 749 x(104)#104 + 832 x(105)#105
      + 1044 x(106)#106 + 786 x(107)#107 + 834 x(108)#108 + 945 x(109)#109
      + 968 x(110)#110 + 805 x(111)#111 + 962 x(112)#112 + 665 x(113)#113
      + 991 x(114)#114 + 733 x(115)#115 + 685 x(116)#116 + 372 x(117)#117
      + 573 x(118)#118 + 1047 x(119)#119 + 653 x(120)#120 + 1026 x(121)#121
      + 518 x(122)#122 + 803 x(123)#123 + 524 x(124)#124 + 418 x(125)#125
      + 595 x(126)#126 + 778 x(127)#127 + 534 x(128)#128 + 503 x(129)#129
      + 1071 x(130)#130 + 927 x(131)#131 + 385 x(132)#132 + 818 x(133)#133
      + 765 x(134)#134 + 751 x(135)#135 + 686 x(136)#136 + 694 x(137)#137
      + 954 x(138)#138 + 619 x(139)#139 + 557 x(140)#140 + 752 x(141)#141
      + 677 x(142)#142 + 736 x(143)#143 + 1000 x(144)#144 + 529 x(145)#145
      + 445 x(146)#146 + 690 x(147)#147 + 875 x(148)#148 + 541 x(149)#149
      + 412 x(150)#150 + 842 x(151)#151 + 693 x(152)#152 + 672 x(153)#153
      + 762 x(154)#154 + 768 x(155)#155 + 815 x(156)#156 + 651 x(157)#157
      + 887 x(158)#158 + 710 x(159)#159 + 298 x(160)#160 + 982 x(161)#161
      + 726 x(162)#162 + 518 x(163)#163 + 614 x(164)#164 + 872 x(165)#165
      + 698 x(166)#166 + 662 x(167)#167 + 1134 x(168)#168 + 959 x(169)#169
      + 840 x(170)#170 + 631 x(171)#171 + 1075 x(172)#172 + 643 x(173)#173
      + 843 x(174)#174 + 790 x(175)#175 + 821 x(176)#176 + 972 x(177)#177
      + 518 x(178)#178 + 638 x(179)#179 + 911 x(180)#180 + 461 x(181)#181
      + 537 x(182)#182 + 568 x(183)#183 + 749 x(184)#184 + 471 x(185)#185
      + 604 x(186)#186 + 373 x(187)#187 + 653 x(188)#188 + 913 x(189)#189
      + 710 x(190)#190 + 687 x(191)#191 + 757 x(192)#192 + 665 x(193)#193
      + 654 x(194)#194 + 646 x(195)#195 + 949 x(196)#196 + 482 x(197)#197
      + 661 x(198)#198 + 619 x(199)#199 + 634 x(200)#200 + 1030 x(201)#201
      + 613 x(202)#202 + 625 x(203)#203 + 546 x(204)#204 + 801 x(205)#205
      + 957 x(206)#206 + 488 x(207)#207 + 988 x(208)#208 + 394 x(209)#209
      + 887 x(210)#210 + 996 x(211)#211 + 648 x(212)#212 + 814 x(213)#213
      + 694 x(214)#214 + 583 x(215)#215 + 847 x(216)#216 + 638 x(217)#217
      + 857 x(218)#218 + 498 x(219)#219 + 931 x(220)#220 + 1070 x(221)#221
      + 691 x(222)#222 + 742 x(223)#223 + 649 x(224)#224 + 685 x(225)#225
      + 577 x(226)#226 + 680 x(227)#227 + 987 x(228)#228 + 703 x(229)#229
      + 757 x(230)#230 + 771 x(231)#231 + 518 x(232)#232 + 440 x(233)#233
      + 593 x(234)#234 + 556 x(235)#235 + 978 x(236)#236 + 745 x(237)#237
      + 707 x(238)#238 + 576 x(239)#239 + 560 x(240)#240 + 1052 x(241)#241
      + 761 x(242)#242 + 645 x(243)#243 + 747 x(244)#244 + 609 x(245)#245
      + 960 x(246)#246 + 782 x(247)#247 + 799 x(248)#248 + 647 x(249)#249
Subject To
 c1: 440 x(0)#0 + 438 x(1)#1 + 667 x(2)#2 + 909 x(3)#3 + 758 x(4)#4
     + 316 x(5)#5 + 356 x(6)#6 + 753 x(7)#7 + 915 x(8)#8 + 725 x(9)#9
     + 515 x(10)#10 + 1000 x(11)#11 + 177 x(12)#12 + 370 x(13)#13
     + 418 x(14)#14 + 562 x(15)#15 + 452 x(16)#16 + 288 x(17)#17 + 121 x(18)#18
     + 972 x(19)#19 + 555 x(20)#20 + 905 x(21)#21 + 241 x(22)#22 + 268 x(23)#23
     + 743 x(24)#24 + 256 x(25)#25 + 366 x(26)#26 + 220 x(27)#27 + 285 x(28)#28
     + 526 x(29)#29 + 642 x(30)#30 + 770 x(31)#31 + 523 x(32)#32 + 487 x(33)#33
     + 537 x(34)#34 + 558 x(35)#35 + 413 x(36)#36 + 579 x(37)#37 + 377 x(38)#38
     + 496 x(39)#39 + 469 x(40)#40 + 382 x(41)#41 + 277 x(42)#42 + 796 x(43)#43
     + 811 x(44)#44 + 607 x(45)#45 + 77 x(46)#46 + 72 x(47)#47 + 594 x(48)#48
     + 969 x(49)#49 + 40 x(50)#50 + 903 x(51)#51 + 55 x(52)#52 + 459 x(53)#53
     + 621 x(54)#54 + 293 x(55)#55 + 495 x(56)#56 + 55 x(57)#57 + 996 x(58)#58
     + 225 x(59)#59 + 96 x(60)#60 + 253 x(61)#61 + 567 x(62)#62 + 601 x(63)#63
     + 179 x(64)#64 + 749 x(65)#65 + 991 x(66)#66 + 849 x(67)#67 + 396 x(68)#68
     + 527 x(69)#69 + 105 x(70)#70 + 705 x(71)#71 + 794 x(72)#72 + 258 x(73)#73
     + 957 x(74)#74 + 473 x(75)#75 + 500 x(76)#76 + 614 x(77)#77 + 602 x(78)#78
     + 22 x(79)#79 + 890 x(80)#80 + 987 x(81)#81 + 283 x(82)#82 + 505 x(83)#83
     + 743 x(84)#84 + 998 x(85)#85 + 287 x(86)#86 + 180 x(87)#87 + 727 x(88)#88
     + 606 x(89)#89 + 268 x(90)#90 + 580 x(91)#91 + 932 x(92)#92 + 794 x(93)#93
     + 913 x(94)#94 + 964 x(95)#95 + 185 x(96)#96 + 729 x(97)#97 + 462 x(98)#98
     + 391 x(99)#99 + 403 x(100)#100 + 455 x(101)#101 + 708 x(102)#102
     + 164 x(103)#103 + 34 x(104)#104 + 786 x(105)#105 + 764 x(106)#106
     + 327 x(107)#107 + 667 x(108)#108 + 752 x(109)#109 + 920 x(110)#110
     + 860 x(111)#111 + 963 x(112)#112 + 278 x(113)#113 + 875 x(114)#114
     + 874 x(115)#115 + 811 x(116)#116 + 57 x(117)#117 + 274 x(118)#118
     + 776 x(119)#119 + 654 x(120)#120 + 693 x(121)#121 + 63 x(122)#122
     + 683 x(123)#123 + 795 x(124)#124 + 670 x(125)#125 + 90 x(126)#126
     + 683 x(127)#127 + 83 x(128)#128 + 98 x(129)#129 + 798 x(130)#130
     + 769 x(131)#131 + 50 x(132)#132 + 139 x(133)#133 + 316 x(134)#134
     + 249 x(135)#135 + 942 x(136)#136 + 102 x(137)#137 + 553 x(138)#138
     + 166 x(139)#139 + 120 x(140)#140 + 164 x(141)#141 + 688 x(142)#142
     + 554 x(143)#143 + 813 x(144)#144 + 251 x(145)#145 + 184 x(146)#146
     + 546 x(147)#147 + 371 x(148)#148 + 188 x(149)#149 + 108 x(150)#150
     + 291 x(151)#151 + 796 x(152)#152 + 803 x(153)#153 + 677 x(154)#154
     + 984 x(155)#155 + 373 x(156)#156 + 649 x(157)#157 + 304 x(158)#158
     + 942 x(159)#159 + 259 x(160)#160 + 233 x(161)#161 + 726 x(162)#162
     + 237 x(163)#163 + 714 x(164)#164 + 676 x(165)#165 + 855 x(166)#166
     + 231 x(167)#167 + 340 x(168)#168 + 508 x(169)#169 + 526 x(170)#170
     + 238 x(171)#171 + 964 x(172)#172 + 547 x(173)#173 + 362 x(174)#174
     + 503 x(175)#175 + 744 x(176)#176 + 946 x(177)#177 + 298 x(178)#178
     + 569 x(179)#179 + 992 x(180)#180 + 496 x(181)#181 + 46 x(182)#182
     + 988 x(183)#183 + 514 x(184)#184 + 288 x(185)#185 + 286 x(186)#186
     + 65 x(187)#187 + 808 x(188)#188 + 586 x(189)#189 + 723 x(190)#190
     + 285 x(191)#191 + 936 x(192)#192 + 837 x(193)#193 + 87 x(194)#194
     + 100 x(195)#195 + 153 x(196)#196 + 177 x(197)#197 + 214 x(198)#198
     + 672 x(199)#199 + 590 x(200)#200 + 942 x(201)#201 + 65 x(202)#202
     + 767 x(203)#203 + 149 x(204)#204 + 612 x(205)#205 + 894 x(206)#206
     + 397 x(207)#207 + 597 x(208)#208 + 569 x(209)#209 + 344 x(210)#210
     + 199 x(211)#211 + 697 x(212)#212 + 405 x(213)#213 + 912 x(214)#214
     + 258 x(215)#215 + 470 x(216)#216 + 669 x(217)#217 + 177 x(218)#218
     + 791 x(219)#219 + 470 x(220)#220 + 353 x(221)#221 + 316 x(222)#222
     + 848 x(223)#223 + 642 x(224)#224 + 622 x(225)#225 + 137 x(226)#226
     + 871 x(227)#227 + 889 x(228)#228 + 306 x(229)#229 + 312 x(230)#230
     + 26 x(231)#231 + 428 x(232)#232 + 508 x(233)#233 + 898 x(234)#234
     + 488 x(235)#235 + 621 x(236)#236 + 159 x(237)#237 + 963 x(238)#238
     + 283 x(239)#239 + 586 x(240)#240 + 499 x(241)#241 + 172 x(242)#242
     + 435 x(243)#243 + 662 x(244)#244 + 817 x(245)#245 + 489 x(246)#246
     + 391 x(247)#247 + 402 x(248)#248 + 170 x(249)#249 <= 31976
 c2: 519 x(0)#0 + 234 x(1)#1 + 110 x(2)#2 + 374 x(3)#3 + 779 x(4)#4
     + 358 x(5)#5 + 209 x(6)#6 + 629 x(7)#7 + 243 x(8)#8 + 500 x(9)#9
     + 825 x(10)#10 + 48 x(11)#11 + 102 x(12)#12 + 343 x(13)#13 + 588 x(14)#14
     + 13 x(15)#15 + 635 x(16)#16 + 347 x(17)#17 + 779 x(18)#18 + 237 x(19)#19
     + 50 x(20)#20 + 873 x(21)#21 + 465 x(22)#22 + 277 x(23)#23 + 435 x(24)#24
     + 255 x(25)#25 + 823 x(26)#26 + 727 x(27)#27 + 826 x(28)#28 + 425 x(29)#29
     + 117 x(30)#30 + 645 x(31)#31 + 896 x(32)#32 + 442 x(33)#33 + 472 x(34)#34
     + 323 x(35)#35 + 840 x(36)#36 + 673 x(37)#37 + 78 x(38)#38 + 906 x(39)#39
     + 422 x(40)#40 + 452 x(41)#41 + 322 x(42)#42 + 635 x(43)#43 + 496 x(44)#44
     + 29 x(45)#45 + 183 x(46)#46 + 130 x(47)#47 + 66 x(48)#48 + 495 x(49)#49
     + 943 x(50)#50 + 678 x(51)#51 + 362 x(52)#52 + 630 x(53)#53 + 825 x(54)#54
     + 617 x(55)#55 + 208 x(56)#56 + 73 x(57)#57 + 500 x(58)#58 + 908 x(59)#59
     + 235 x(60)#60 + 601 x(61)#61 + 263 x(62)#62 + 353 x(63)#63 + 3 x(64)#64
     + 975 x(65)#65 + 988 x(66)#66 + 725 x(67)#67 + 955 x(68)#68 + 472 x(69)#69
     + 991 x(70)#70 + 59 x(71)#71 + 34 x(72)#72 + 167 x(73)#73 + 730 x(74)#74
     + 82 x(75)#75 + 438 x(76)#76 + 549 x(77)#77 + 630 x(78)#78 + 465 x(79)#79
     + 791 x(80)#80 + 827 x(81)#81 + 889 x(82)#82 + 632 x(83)#83 + 372 x(84)#84
     + 452 x(85)#85 + 26 x(86)#86 + 863 x(87)#87 + 209 x(88)#88 + 819 x(89)#89
     + 238 x(90)#90 + 387 x(91)#91 + 59 x(92)#92 + 680 x(93)#93 + 256 x(94)#94
     + 251 x(95)#95 + 185 x(96)#96 + 65 x(97)#97 + 778 x(98)#98 + 822 x(99)#99
     + 843 x(100)#100 + 794 x(101)#101 + 998 x(102)#102 + 707 x(103)#103
     + 623 x(104)#104 + 293 x(105)#105 + 555 x(106)#106 + 957 x(107)#107
     + 135 x(108)#108 + 800 x(109)#109 + 416 x(110)#110 + 565 x(111)#111
     + 132 x(112)#112 + 217 x(113)#113 + 850 x(114)#114 + 38 x(115)#115
     + 816 x(116)#116 + 57 x(117)#117 + 341 x(118)#118 + 830 x(119)#119
     + 271 x(120)#120 + 395 x(121)#121 + 36 x(122)#122 + 505 x(123)#123
     + 603 x(124)#124 + 852 x(125)#125 + 121 x(126)#126 + 933 x(127)#127
     + 362 x(128)#128 + 456 x(129)#129 + 651 x(130)#130 + 478 x(131)#131
     + 24 x(132)#132 + 809 x(133)#133 + 218 x(134)#134 + 327 x(135)#135
     + 76 x(136)#136 + 454 x(137)#137 + 988 x(138)#138 + 917 x(139)#139
     + 292 x(140)#140 + 428 x(141)#141 + 333 x(142)#142 + 836 x(143)#143
     + 447 x(144)#144 + 511 x(145)#145 + 208 x(146)#146 + 77 x(147)#147
     + 462 x(148)#148 + 759 x(149)#149 + 273 x(150)#150 + 430 x(151)#151
     + 873 x(152)#152 + 683 x(153)#153 + 582 x(154)#154 + 160 x(155)#155
     + 971 x(156)#156 + 598 x(157)#157 + 720 x(158)#158 + 695 x(159)#159
     + 173 x(160)#160 + 100 x(161)#161 + 637 x(162)#162 + 36 x(163)#163
     + 212 x(164)#164 + 739 x(165)#165 + 379 x(166)#166 + 801 x(167)#167
     + 930 x(168)#168 + 786 x(169)#169 + 445 x(170)#170 + 561 x(171)#171
     + 876 x(172)#172 + 282 x(173)#173 + 13 x(174)#174 + 390 x(175)#175
     + 280 x(176)#176 + 534 x(177)#177 + 341 x(178)#178 + 23 x(179)#179
     + 269 x(180)#180 + 228 x(181)#181 + 469 x(182)#182 + 280 x(183)#183
     + 840 x(184)#184 + x(185)#185 + 484 x(186)#186 + 32 x(187)#187
     + 762 x(188)#188 + 526 x(189)#189 + 455 x(190)#190 + 928 x(191)#191
     + 835 x(192)#192 + 693 x(193)#193 + 690 x(194)#194 + 624 x(195)#195
     + 685 x(196)#196 + 169 x(197)#197 + 746 x(198)#198 + 481 x(199)#199
     + 368 x(200)#200 + 864 x(201)#201 + 798 x(202)#202 + 346 x(203)#203
     + 121 x(204)#204 + 498 x(205)#205 + 161 x(206)#206 + 508 x(207)#207
     + 825 x(208)#208 + 86 x(209)#209 + 312 x(210)#210 + 932 x(211)#211
     + 766 x(212)#212 + 497 x(213)#213 + 811 x(214)#214 + 931 x(215)#215
     + 412 x(216)#216 + 950 x(217)#217 + 574 x(218)#218 + 48 x(219)#219
     + 306 x(220)#220 + 836 x(221)#221 + 565 x(222)#222 + 264 x(223)#223
     + 212 x(224)#224 + 138 x(225)#225 + 449 x(226)#226 + 459 x(227)#227
     + 452 x(228)#228 + 580 x(229)#229 + 885 x(230)#230 + 814 x(231)#231
     + 687 x(232)#232 + 242 x(233)#233 + 71 x(234)#234 + 279 x(235)#235
     + 753 x(236)#236 + 340 x(237)#237 + 15 x(238)#238 + 101 x(239)#239
     + 384 x(240)#240 + 944 x(241)#241 + 873 x(242)#242 + 107 x(243)#243
     + 209 x(244)#244 + 423 x(245)#245 + 90 x(246)#246 + 800 x(247)#247
     + 245 x(248)#248 + 570 x(249)#249 <= 30032
 c3: 373 x(0)#0 + 224 x(1)#1 + 496 x(2)#2 + 88 x(3)#3 + 826 x(4)#4 + 432 x(5)#5
     + 280 x(6)#6 + 85 x(7)#7 + 11 x(8)#8 + 236 x(9)#9 + 16 x(10)#10
     + 274 x(11)#11 + 742 x(12)#12 + 720 x(13)#13 + 63 x(14)#14 + 983 x(15)#15
     + 745 x(16)#16 + 81 x(17)#17 + 996 x(18)#18 + 664 x(19)#19 + 193 x(20)#20
     + 17 x(21)#21 + 374 x(22)#22 + 858 x(23)#23 + 697 x(24)#24 + 172 x(25)#25
     + 885 x(26)#26 + 756 x(27)#27 + 635 x(28)#28 + 238 x(29)#29 + 34 x(30)#30
     + 646 x(31)#31 + 855 x(32)#32 + 593 x(33)#33 + 423 x(34)#34 + 434 x(35)#35
     + 623 x(36)#36 + 631 x(37)#37 + 430 x(38)#38 + 389 x(39)#39 + 694 x(40)#40
     + 507 x(41)#41 + 914 x(42)#42 + 380 x(43)#43 + 28 x(44)#44 + 752 x(45)#45
     + 552 x(46)#46 + 822 x(47)#47 + 291 x(48)#48 + 327 x(49)#49 + 876 x(50)#50
     + 918 x(51)#51 + 78 x(52)#52 + 505 x(53)#53 + 858 x(54)#54 + 325 x(55)#55
     + 214 x(56)#56 + 72 x(57)#57 + 811 x(58)#58 + 73 x(59)#59 + 540 x(60)#60
     + 766 x(61)#61 + 196 x(62)#62 + 936 x(63)#63 + 150 x(64)#64 + 738 x(65)#65
     + 973 x(66)#66 + 154 x(67)#67 + 642 x(68)#68 + 694 x(69)#69 + 935 x(70)#70
     + 649 x(71)#71 + 972 x(72)#72 + 306 x(73)#73 + 178 x(74)#74 + 154 x(75)#75
     + 63 x(76)#76 + 630 x(77)#77 + 625 x(78)#78 + 777 x(79)#79 + 565 x(80)#80
     + 377 x(81)#81 + 375 x(82)#82 + 678 x(83)#83 + 662 x(84)#84 + 749 x(85)#85
     + 317 x(86)#86 + 513 x(87)#87 + 474 x(88)#88 + 462 x(89)#89 + 35 x(90)#90
     + 774 x(91)#91 + 815 x(92)#92 + 71 x(93)#93 + 258 x(94)#94 + 409 x(95)#95
     + 145 x(96)#96 + 27 x(97)#97 + 531 x(98)#98 + 352 x(99)#99
     + 645 x(100)#100 + 388 x(101)#101 + 410 x(102)#102 + 443 x(103)#103
     + 772 x(104)#104 + 214 x(105)#105 + 104 x(106)#106 + 980 x(107)#107
     + 703 x(108)#108 + 240 x(109)#109 + 867 x(110)#110 + 70 x(111)#111
     + 879 x(112)#112 + 608 x(113)#113 + 509 x(114)#114 + 343 x(115)#115
     + 242 x(116)#116 + 331 x(117)#117 + 575 x(118)#118 + 406 x(119)#119
     + 284 x(120)#120 + 855 x(121)#121 + 100 x(122)#122 + 923 x(123)#123
     + 235 x(124)#124 + 241 x(125)#125 + 94 x(126)#126 + 544 x(127)#127
     + 112 x(128)#128 + 846 x(129)#129 + 745 x(130)#130 + 724 x(131)#131
     + 231 x(132)#132 + 346 x(133)#133 + 656 x(134)#134 + 553 x(135)#135
     + 246 x(136)#136 + 905 x(137)#137 + 483 x(138)#138 + 530 x(139)#139
     + 645 x(140)#140 + 641 x(141)#141 + 974 x(142)#142 + 135 x(143)#143
     + 305 x(144)#144 + 179 x(145)#145 + 328 x(146)#146 + 675 x(147)#147
     + 416 x(148)#148 + 238 x(149)#149 + 336 x(150)#150 + 356 x(151)#151
     + 604 x(152)#152 + 778 x(153)#153 + 47 x(154)#154 + 640 x(155)#155
     + 648 x(156)#156 + 533 x(157)#157 + 222 x(158)#158 + 495 x(159)#159
     + 316 x(160)#160 + 896 x(161)#161 + 758 x(162)#162 + 93 x(163)#163
     + 536 x(164)#164 + 903 x(165)#165 + 817 x(166)#166 + 508 x(167)#167
     + 698 x(168)#168 + 994 x(169)#169 + 140 x(170)#170 + 140 x(171)#171
     + 656 x(172)#172 + 286 x(173)#173 + 57 x(174)#174 + 378 x(175)#175
     + 764 x(176)#176 + 803 x(177)#177 + 70 x(178)#178 + 561 x(179)#179
     + 394 x(180)#180 + 387 x(181)#181 + 951 x(182)#182 + 298 x(183)#183
     + 618 x(184)#184 + 544 x(185)#185 + 716 x(186)#186 + 405 x(187)#187
     + 206 x(188)#188 + 371 x(189)#189 + 346 x(190)#190 + 461 x(191)#191
     + 708 x(192)#192 + 899 x(193)#193 + 979 x(194)#194 + 645 x(195)#195
     + 536 x(196)#196 + 331 x(197)#197 + 453 x(198)#198 + 813 x(199)#199
     + 656 x(200)#200 + 490 x(201)#201 + 394 x(202)#202 + 202 x(203)#203
     + 575 x(204)#204 + 801 x(205)#205 + 341 x(206)#206 + 488 x(207)#207
     + 702 x(208)#208 + 511 x(209)#209 + 776 x(210)#210 + 944 x(211)#211
     + 919 x(212)#212 + 869 x(213)#213 + 421 x(214)#214 + 74 x(215)#215
     + 431 x(216)#216 + 248 x(217)#217 + 906 x(218)#218 + 58 x(219)#219
     + 438 x(220)#220 + 577 x(221)#221 + 748 x(222)#222 + 546 x(223)#223
     + 391 x(224)#224 + 662 x(225)#225 + 79 x(226)#226 + 618 x(227)#227
     + 280 x(228)#228 + 535 x(229)#229 + 467 x(230)#230 + 946 x(231)#231
     + 105 x(232)#232 + 112 x(233)#233 + 527 x(234)#234 + 235 x(235)#235
     + 549 x(236)#236 + 514 x(237)#237 + 930 x(238)#238 + 825 x(239)#239
     + 953 x(240)#240 + 816 x(241)#241 + 285 x(242)#242 + 898 x(243)#243
     + 575 x(244)#244 + 169 x(245)#245 + 858 x(246)#246 + 267 x(247)#247
     + 138 x(248)#248 + 538 x(249)#249 <= 31070
 c4: 219 x(0)#0 + 798 x(1)#1 + 639 x(2)#2 + 682 x(3)#3 + 354 x(4)#4
     + 134 x(5)#5 + 463 x(6)#6 + 706 x(7)#7 + 460 x(8)#8 + 918 x(9)#9
     + 119 x(10)#10 + 818 x(11)#11 + 412 x(12)#12 + 596 x(13)#13 + 412 x(14)#14
     + 669 x(15)#15 + 921 x(16)#16 + 353 x(17)#17 + 559 x(18)#18 + 848 x(19)#19
     + 111 x(20)#20 + 493 x(21)#21 + 340 x(22)#22 + 549 x(23)#23 + 94 x(24)#24
     + 621 x(25)#25 + 250 x(26)#26 + 177 x(27)#27 + 253 x(28)#28 + 205 x(29)#29
     + 219 x(30)#30 + 615 x(31)#31 + 444 x(32)#32 + 651 x(33)#33 + 944 x(34)#34
     + 843 x(35)#35 + 972 x(36)#36 + 816 x(37)#37 + 940 x(38)#38 + 407 x(39)#39
     + 88 x(40)#40 + 967 x(41)#41 + 13 x(42)#42 + 421 x(43)#43 + 256 x(44)#44
     + 195 x(45)#45 + 473 x(46)#46 + 984 x(47)#47 + 384 x(48)#48 + 27 x(49)#49
     + 894 x(50)#50 + 699 x(51)#51 + 213 x(52)#52 + 573 x(53)#53 + 840 x(54)#54
     + 94 x(55)#55 + 803 x(56)#56 + 835 x(57)#57 + 441 x(58)#58 + 717 x(59)#59
     + 479 x(60)#60 + 191 x(61)#61 + 378 x(62)#62 + 927 x(63)#63 + 712 x(64)#64
     + 768 x(65)#65 + 563 x(66)#66 + 622 x(67)#67 + 60 x(68)#68 + 394 x(69)#69
     + 60 x(70)#70 + 387 x(71)#71 + 123 x(72)#72 + 391 x(73)#73 + 922 x(74)#74
     + 519 x(75)#75 + 310 x(76)#76 + 151 x(77)#77 + 336 x(78)#78 + 666 x(79)#79
     + 294 x(80)#80 + 320 x(81)#81 + 683 x(82)#82 + 828 x(83)#83 + 284 x(84)#84
     + 351 x(85)#85 + 419 x(86)#86 + 852 x(87)#87 + 204 x(88)#88 + 458 x(89)#89
     + 410 x(90)#90 + 780 x(91)#91 + 56 x(92)#92 + 203 x(93)#93 + 775 x(94)#94
     + 9 x(95)#95 + 877 x(96)#96 + 124 x(97)#97 + 776 x(98)#98 + 515 x(99)#99
     + 184 x(100)#100 + 946 x(101)#101 + 985 x(102)#102 + 824 x(103)#103
     + 527 x(104)#104 + 564 x(105)#105 + 950 x(106)#106 + 385 x(107)#107
     + 767 x(108)#108 + 848 x(109)#109 + 969 x(110)#110 + 642 x(111)#111
     + 217 x(112)#112 + 890 x(113)#113 + 589 x(114)#114 + 698 x(115)#115
     + 947 x(116)#116 + 627 x(117)#117 + 199 x(118)#118 + 775 x(119)#119
     + 888 x(120)#120 + 699 x(121)#121 + 31 x(122)#122 + 526 x(123)#123
     + 151 x(124)#124 + 31 x(125)#125 + 258 x(126)#126 + 645 x(127)#127
     + 524 x(128)#128 + 593 x(129)#129 + 933 x(130)#130 + 185 x(131)#131
     + 329 x(132)#132 + 690 x(133)#133 + 329 x(134)#134 + 446 x(135)#135
     + 986 x(136)#136 + 295 x(137)#137 + 505 x(138)#138 + 298 x(139)#139
     + 467 x(140)#140 + 646 x(141)#141 + 101 x(142)#142 + 320 x(143)#143
     + 290 x(144)#144 + 519 x(145)#145 + 116 x(146)#146 + 942 x(147)#147
     + 243 x(148)#148 + 411 x(149)#149 + 291 x(150)#150 + 829 x(151)#151
     + 176 x(152)#152 + 126 x(153)#153 + 711 x(154)#154 + 980 x(155)#155
     + 509 x(156)#156 + 372 x(157)#157 + 596 x(158)#158 + 171 x(159)#159
     + 37 x(160)#160 + 333 x(161)#161 + 924 x(162)#162 + 464 x(163)#163
     + 54 x(164)#164 + 424 x(165)#165 + 398 x(166)#166 + 996 x(167)#167
     + 989 x(168)#168 + 448 x(169)#169 + 764 x(170)#170 + 867 x(171)#171
     + 897 x(172)#172 + 881 x(173)#173 + 843 x(174)#174 + 965 x(175)#175
     + 376 x(176)#176 + 817 x(177)#177 + 376 x(178)#178 + 55 x(179)#179
     + 92 x(180)#180 + 686 x(181)#181 + 191 x(182)#182 + 73 x(183)#183
     + 419 x(184)#184 + 436 x(185)#185 + 235 x(186)#186 + 405 x(187)#187
     + 826 x(188)#188 + 435 x(189)#189 + 316 x(190)#190 + 477 x(191)#191
     + 527 x(192)#192 + 169 x(193)#193 + 12 x(194)#194 + 585 x(195)#195
     + 872 x(196)#196 + 853 x(197)#197 + 183 x(198)#198 + 538 x(199)#199
     + 983 x(200)#200 + 15 x(201)#201 + 46 x(202)#202 + 403 x(203)#203
     + 658 x(204)#204 + 97 x(205)#205 + 531 x(206)#206 + 88 x(207)#207
     + 604 x(208)#208 + 518 x(209)#209 + 481 x(210)#210 + 237 x(211)#211
     + 758 x(212)#212 + 412 x(213)#213 + 155 x(214)#214 + 40 x(215)#215
     + 467 x(216)#216 + 379 x(217)#217 + 153 x(218)#218 + 162 x(219)#219
     + 373 x(220)#220 + 634 x(221)#221 + 794 x(222)#222 + 232 x(223)#223
     + 139 x(224)#224 + 750 x(225)#225 + 996 x(226)#226 + 411 x(227)#227
     + 871 x(228)#228 + 657 x(229)#229 + 901 x(230)#230 + 385 x(231)#231
     + 217 x(232)#232 + 812 x(233)#233 + 671 x(234)#234 + 386 x(235)#235
     + 462 x(236)#236 + 117 x(237)#237 + 957 x(238)#238 + 754 x(239)#239
     + 366 x(240)#240 + 951 x(241)#241 + 152 x(242)#242 + 857 x(243)#243
     + 688 x(244)#244 + 293 x(245)#245 + 823 x(246)#246 + 588 x(247)#247
     + 430 x(248)#248 + 604 x(249)#249 <= 31376
 c5: 859 x(0)#0 + 82 x(1)#1 + 607 x(2)#2 + 130 x(3)#3 + 702 x(4)#4 + 894 x(5)#5
     + 512 x(6)#6 + 314 x(7)#7 + 983 x(8)#8 + 815 x(9)#9 + 787 x(10)#10
     + 797 x(11)#11 + 686 x(12)#12 + 169 x(13)#13 + 667 x(14)#14 + 15 x(15)#15
     + 103 x(16)#16 + 465 x(17)#17 + 972 x(18)#18 + 671 x(19)#19 + 833 x(20)#20
     + 578 x(21)#21 + 549 x(22)#22 + 269 x(23)#23 + 948 x(24)#24 + 683 x(25)#25
     + 675 x(26)#26 + 704 x(27)#27 + 596 x(28)#28 + 125 x(29)#29 + 916 x(30)#30
     + 351 x(31)#31 + 816 x(32)#32 + 861 x(33)#33 + 560 x(34)#34 + 291 x(35)#35
     + 96 x(36)#36 + 934 x(37)#37 + 784 x(38)#38 + 462 x(39)#39 + 450 x(40)#40
     + 228 x(41)#41 + 771 x(42)#42 + 671 x(43)#43 + 364 x(44)#44 + 304 x(45)#45
     + 572 x(46)#46 + 928 x(47)#47 + 575 x(48)#48 + 151 x(49)#49 + 894 x(50)#50
     + 766 x(51)#51 + 96 x(52)#52 + 425 x(53)#53 + 307 x(54)#54 + 286 x(55)#55
     + 965 x(56)#56 + 650 x(57)#57 + 694 x(58)#58 + 839 x(59)#59 + 257 x(60)#60
     + 74 x(61)#61 + 799 x(62)#62 + 451 x(63)#63 + 792 x(64)#64 + 132 x(65)#65
     + 680 x(66)#66 + 997 x(67)#67 + 721 x(68)#68 + 681 x(69)#69 + 121 x(70)#70
     + 154 x(71)#71 + 415 x(72)#72 + 555 x(73)#73 + 320 x(74)#74 + 120 x(75)#75
     + 750 x(76)#76 + 225 x(77)#77 + 438 x(78)#78 + 679 x(79)#79 + 389 x(80)#80
     + 197 x(81)#81 + 649 x(82)#82 + 385 x(83)#83 + 832 x(84)#84 + 478 x(85)#85
     + 53 x(86)#86 + 339 x(87)#87 + 603 x(88)#88 + 94 x(89)#89 + 531 x(90)#90
     + 24 x(91)#91 + 582 x(92)#92 + 411 x(93)#93 + 445 x(94)#94 + 330 x(95)#95
     + 395 x(96)#96 + 695 x(97)#97 + 294 x(98)#98 + 800 x(99)#99
     + 80 x(100)#100 + 175 x(101)#101 + 419 x(102)#102 + 174 x(103)#103
     + 196 x(104)#104 + 99 x(105)#105 + 809 x(106)#106 + 800 x(107)#107
     + 812 x(108)#108 + 449 x(109)#109 + 30 x(110)#110 + 756 x(111)#111
     + 691 x(112)#112 + 450 x(113)#113 + 240 x(114)#114 + 186 x(115)#115
     + 123 x(116)#116 + 474 x(117)#117 + 702 x(118)#118 + 196 x(119)#119
     + 406 x(120)#120 + 520 x(121)#121 + 920 x(122)#122 + 637 x(123)#123
     + 267 x(124)#124 + 129 x(125)#125 + 22 x(126)#126 + 539 x(127)#127
     + 73 x(128)#128 + 517 x(129)#129 + 379 x(130)#130 + 764 x(131)#131
     + 293 x(132)#132 + 774 x(133)#133 + 376 x(134)#134 + 970 x(135)#135
     + 955 x(136)#136 + 332 x(137)#137 + 32 x(138)#138 + 271 x(139)#139
     + 206 x(140)#140 + 746 x(141)#141 + 847 x(142)#142 + 239 x(143)#143
     + 696 x(144)#144 + 230 x(145)#145 + 81 x(146)#146 + 639 x(147)#147
     + 968 x(148)#148 + 164 x(149)#149 + 428 x(150)#150 + 913 x(151)#151
     + 919 x(152)#152 + 135 x(153)#153 + 941 x(154)#154 + 724 x(155)#155
     + 464 x(156)#156 + 540 x(157)#157 + 892 x(158)#158 + 454 x(159)#159
     + 275 x(160)#160 + 966 x(161)#161 + 22 x(162)#162 + 697 x(163)#163
     + 240 x(164)#164 + 160 x(165)#165 + 414 x(166)#166 + 278 x(167)#167
     + 923 x(168)#168 + 895 x(169)#169 + 891 x(170)#170 + 605 x(171)#171
     + 813 x(172)#172 + 668 x(173)#173 + 951 x(174)#174 + 567 x(175)#175
     + 692 x(176)#176 + 722 x(177)#177 + 933 x(178)#178 + 585 x(179)#179
     + 823 x(180)#180 + 84 x(181)#181 + 672 x(182)#182 + 674 x(183)#183
     + 292 x(184)#184 + 780 x(185)#185 + 323 x(186)#186 + 847 x(187)#187
     + 246 x(188)#188 + 738 x(189)#189 + 749 x(190)#190 + 810 x(191)#191
     + 591 x(192)#192 + 579 x(193)#193 + 424 x(194)#194 + 79 x(195)#195
     + 953 x(196)#196 + 261 x(197)#197 + 454 x(198)#198 + 194 x(199)#199
     + 405 x(200)#200 + 828 x(201)#201 + 170 x(202)#202 + 81 x(203)#203
     + 967 x(204)#204 + 86 x(205)#205 + 831 x(206)#206 + 774 x(207)#207
     + 735 x(208)#208 + 46 x(209)#209 + 972 x(210)#210 + 449 x(211)#211
     + 65 x(212)#212 + 91 x(213)#213 + 370 x(214)#214 + 790 x(215)#215
     + 215 x(216)#216 + 926 x(217)#217 + 907 x(218)#218 + 772 x(219)#219
     + 676 x(220)#220 + 838 x(221)#221 + 714 x(222)#222 + 473 x(223)#223
     + 151 x(224)#224 + 59 x(225)#225 + 969 x(226)#226 + 670 x(227)#227
     + 921 x(228)#228 + 788 x(229)#229 + 215 x(230)#230 + 710 x(231)#231
     + 7 x(232)#232 + 105 x(233)#233 + 303 x(234)#234 + 957 x(235)#235
     + 390 x(236)#236 + 888 x(237)#237 + 543 x(238)#238 + 786 x(239)#239
     + 26 x(240)#240 + 489 x(241)#241 + 253 x(242)#242 + 557 x(243)#243
     + 60 x(244)#244 + 288 x(245)#245 + 721 x(246)#246 + 631 x(247)#247
     + 983 x(248)#248 + 517 x(249)#249 <= 32346
Bounds
 0 <= x(0)#0 <= 1
 0 <= x(1)#1 <= 1
 0 <= x(2)#2 <= 1
 0 <= x(3)#3 <= 1
 0 <= x(4)#4 <= 1
 0 <= x(5)#5 <= 1
 0 <= x(6)#6 <= 1
 0 <= x(7)#7 <= 1
 0 <= x(8)#8 <= 1
 0 <= x(9)#9 <= 1
 0 <= x(10)#10 <= 1
 0 <= x(11)#11 <= 1
 0 <= x(12)#12 <= 1
 0 <= x(13)#13 <= 1
 0 <= x(14)#14 <= 1
 0 <= x(15)#15 <= 1
 0 <= x(16)#16 <= 1
 0 <= x(17)#17 <= 1
 0 <= x(18)#18 <= 1
 0 <= x(19)#19 <= 1
 0 <= x(20)#20 <= 1
 0 <= x(21)#21 <= 1
 0 <= x(22)#22 <= 1
 0 <= x(23)#23 <= 1
 0 <= x(24)#24 <= 1
 0 <= x(25)#25 <= 1
 0 <= x(26)#26 <= 1
 0 <= x(27)#27 <= 1
 0 <= x(28)#28 <= 1
 0 <= x(29)#29 <= 1
 0 <= x(30)#30 <= 1
 0 <= x(31)#31 <= 1
 0 <= x(32)#32 <= 1
 0 <= x(33)#33 <= 1
 0 <= x(34)#34 <= 1
 0 <= x(35)#35 <= 1
 0 <= x(36)#36 <= 1
 0 <= x(37)#37 <= 1
 0 <= x(38)#38 <= 1
 0 <= x(39)#39 <= 1
 0 <= x(40)#40 <= 1
 0 <= x(41)#41 <= 1
 0 <= x(42)#42 <= 1
 0 <= x(43)#43 <= 1
 0 <= x(44)#44 <= 1
 0 <= x(45)#45 <= 1
 0 <= x(46)#46 <= 1
 0 <= x(47)#47 <= 1
 0 <= x(48)#48 <= 1
 0 <= x(49)#49 <= 1
 0 <= x(50)#50 <= 1
 0 <= x(51)#51 <= 1
 0 <= x(52)#52 <= 1
 0 <= x(53)#53 <= 1
 0 <= x(54)#54 <= 1
 0 <= x(55)#55 <= 1
 0 <= x(56)#56 <= 1
 0 <= x(57)#57 <= 1
 0 <= x(58)#58 <= 1
 0 <= x(59)#59 <= 1
 0 <= x(60)#60 <= 1
 0 <= x(61)#61 <= 1
 0 <= x(62)#62 <= 1
 0 <= x(63)#63 <= 1
 0 <= x(64)#64 <= 1
 0 <= x(65)#65 <= 1
 0 <= x(66)#66 <= 1
 0 <= x(67)#67 <= 1
 0 <= x(68)#68 <= 1
 0 <= x(69)#69 <= 1
 0 <= x(70)#70 <= 1
 0 <= x(71)#71 <= 1
 0 <= x(72)#72 <= 1
 0 <= x(73)#73 <= 1
 0 <= x(74)#74 <= 1
 0 <= x(75)#75 <= 1
 0 <= x(76)#76 <= 1
 0 <= x(77)#77 <= 1
 0 <= x(78)#78 <= 1
 0 <= x(79)#79 <= 1
 0 <= x(80)#80 <= 1
 0 <= x(81)#81 <= 1
 0 <= x(82)#82 <= 1
 0 <= x(83)#83 <= 1
 0 <= x(84)#84 <= 1
 0 <= x(85)#85 <= 1
 0 <= x(86)#86 <= 1
 0 <= x(87)#87 <= 1
 0 <= x(88)#88 <= 1
 0 <= x(89)#89 <= 1
 0 <= x(90)#90 <= 1
 0 <= x(91)#91 <= 1
 0 <= x(92)#92 <= 1
 0 <= x(93)#93 <= 1
 0 <= x(94)#94 <= 1
 0 <= x(95)#95 <= 1
 0 <= x(96)#96 <= 1
 0 <= x(97)#97 <= 1
 0 <= x(98)#98 <= 1
 0 <= x(99)#99 <= 1
 0 <= x(100)#100 <= 1
 0 <= x(101)#101 <= 1
 0 <= x(102)#102 <= 1
 0 <= x(103)#103 <= 1
 0 <= x(104)#104 <= 1
 0 <= x(105)#105 <= 1
 0 <= x(106)#106 <= 1
 0 <= x(107)#107 <= 1
 0 <= x(108)#108 <= 1
 0 <= x(109)#109 <= 1
 0 <= x(110)#110 <= 1
 0 <= x(111)#111 <= 1
 0 <= x(112)#112 <= 1
 0 <= x(113)#113 <= 1
 0 <= x(114)#114 <= 1
 0 <= x(115)#115 <= 1
 0 <= x(116)#116 <= 1
 0 <= x(117)#117 <= 1
 0 <= x(118)#118 <= 1
 0 <= x(119)#119 <= 1
 0 <= x(120)#120 <= 1
 0 <= x(121)#121 <= 1
 0 <= x(122)#122 <= 1
 0 <= x(123)#123 <= 1
 0 <= x(124)#124 <= 1
 0 <= x(125)#125 <= 1
 0 <= x(126)#126 <= 1
 0 <= x(127)#127 <= 1
 0 <= x(128)#128 <= 1
 0 <= x(129)#129 <= 1
 0 <= x(130)#130 <= 1
 0 <= x(131)#131 <= 1
 0 <= x(132)#132 <= 1
 0 <= x(133)#133 <= 1
 0 <= x(134)#134 <= 1
 0 <= x(135)#135 <= 1
 0 <= x(136)#136 <= 1
 0 <= x(137)#137 <= 1
 0 <= x(138)#138 <= 1
 0 <= x(139)#139 <= 1
 0 <= x(140)#140 <= 1
 0 <= x(141)#141 <= 1
 0 <= x(142)#142 <= 1
 0 <= x(143)#143 <= 1
 0 <= x(144)#144 <= 1
 0 <= x(145)#145 <= 1
 0 <= x(146)#146 <= 1
 0 <= x(147)#147 <= 1
 0 <= x(148)#148 <= 1
 0 <= x(149)#149 <= 1
 0 <= x(150)#150 <= 1
 0 <= x(151)#151 <= 1
 0 <= x(152)#152 <= 1
 0 <= x(153)#153 <= 1
 0 <= x(154)#154 <= 1
 0 <= x(155)#155 <= 1
 0 <= x(156)#156 <= 1
 0 <= x(157)#157 <= 1
 0 <= x(158)#158 <= 1
 0 <= x(159)#159 <= 1
 0 <= x(160)#160 <= 1
 0 <= x(161)#161 <= 1
 0 <= x(162)#162 <= 1
 0 <= x(163)#163 <= 1
 0 <= x(164)#164 <= 1
 0 <= x(165)#165 <= 1
 0 <= x(166)#166 <= 1
 0 <= x(167)#167 <= 1
 0 <= x(168)#168 <= 1
 0 <= x(169)#169 <= 1
 0 <= x(170)#170 <= 1
 0 <= x(171)#171 <= 1
 0 <= x(172)#172 <= 1
 0 <= x(173)#173 <= 1
 0 <= x(174)#174 <= 1
 0 <= x(175)#175 <= 1
 0 <= x(176)#176 <= 1
 0 <= x(177)#177 <= 1
 0 <= x(178)#178 <= 1
 0 <= x(179)#179 <= 1
 0 <= x(180)#180 <= 1
 0 <= x(181)#181 <= 1
 0 <= x(182)#182 <= 1
 0 <= x(183)#183 <= 1
 0 <= x(184)#184 <= 1
 0 <= x(185)#185 <= 1
 0 <= x(186)#186 <= 1
 0 <= x(187)#187 <= 1
 0 <= x(188)#188 <= 1
 0 <= x(189)#189 <= 1
 0 <= x(190)#190 <= 1
 0 <= x(191)#191 <= 1
 0 <= x(192)#192 <= 1
 0 <= x(193)#193 <= 1
 0 <= x(194)#194 <= 1
 0 <= x(195)#195 <= 1
 0 <= x(196)#196 <= 1
 0 <= x(197)#197 <= 1
 0 <= x(198)#198 <= 1
 0 <= x(199)#199 <= 1
 0 <= x(200)#200 <= 1
 0 <= x(201)#201 <= 1
 0 <= x(202)#202 <= 1
 0 <= x(203)#203 <= 1
 0 <= x(204)#204 <= 1
 0 <= x(205)#205 <= 1
 0 <= x(206)#206 <= 1
 0 <= x(207)#207 <= 1
 0 <= x(208)#208 <= 1
 0 <= x(209)#209 <= 1
 0 <= x(210)#210 <= 1
 0 <= x(211)#211 <= 1
 0 <= x(212)#212 <= 1
 0 <= x(213)#213 <= 1
 0 <= x(214)#214 <= 1
 0 <= x(215)#215 <= 1
 0 <= x(216)#216 <= 1
 0 <= x(217)#217 <= 1
 0 <= x(218)#218 <= 1
 0 <= x(219)#219 <= 1
 0 <= x(220)#220 <= 1
 0 <= x(221)#221 <= 1
 0 <= x(222)#222 <= 1
 0 <= x(223)#223 <= 1
 0 <= x(224)#224 <= 1
 0 <= x(225)#225 <= 1
 0 <= x(226)#226 <= 1
 0 <= x(227)#227 <= 1
 0 <= x(228)#228 <= 1
 0 <= x(229)#229 <= 1
 0 <= x(230)#230 <= 1
 0 <= x(231)#231 <= 1
 0 <= x(232)#232 <= 1
 0 <= x(233)#233 <= 1
 0 <= x(234)#234 <= 1
 0 <= x(235)#235 <= 1
 0 <= x(236)#236 <= 1
 0 <= x(237)#237 <= 1
 0 <= x(238)#238 <= 1
 0 <= x(239)#239 <= 1
 0 <= x(240)#240 <= 1
 0 <= x(241)#241 <= 1
 0 <= x(242)#242 <= 1
 0 <= x(243)#243 <= 1
 0 <= x(244)#244 <= 1
 0 <= x(245)#245 <= 1
 0 <= x(246)#246 <= 1
 0 <= x(247)#247 <= 1
 0 <= x(248)#248 <= 1
 0 <= x(249)#249 <= 1
Generals
 x(0)#0  x(1)#1  x(2)#2  x(3)#3  x(4)#4  x(5)#5  x(6)#6  x(7)#7  x(8)#8 
 x(9)#9  x(10)#10  x(11)#11  x(12)#12  x(13)#13  x(14)#14  x(15)#15  x(16)#16 
 x(17)#17  x(18)#18  x(19)#19  x(20)#20  x(21)#21  x(22)#22  x(23)#23 
 x(24)#24  x(25)#25  x(26)#26  x(27)#27  x(28)#28  x(29)#29  x(30)#30 
 x(31)#31  x(32)#32  x(33)#33  x(34)#34  x(35)#35  x(36)#36  x(37)#37 
 x(38)#38  x(39)#39  x(40)#40  x(41)#41  x(42)#42  x(43)#43  x(44)#44 
 x(45)#45  x(46)#46  x(47)#47  x(48)#48  x(49)#49  x(50)#50  x(51)#51 
 x(52)#52  x(53)#53  x(54)#54  x(55)#55  x(56)#56  x(57)#57  x(58)#58 
 x(59)#59  x(60)#60  x(61)#61  x(62)#62  x(63)#63  x(64)#64  x(65)#65 
 x(66)#66  x(67)#67  x(68)#68  x(69)#69  x(70)#70  x(71)#71  x(72)#72 
 x(73)#73  x(74)#74  x(75)#75  x(76)#76  x(77)#77  x(78)#78  x(79)#79 
 x(80)#80  x(81)#81  x(82)#82  x(83)#83  x(84)#84  x(85)#85  x(86)#86 
 x(87)#87  x(88)#88  x(89)#89  x(90)#90  x(91)#91  x(92)#92  x(93)#93 
 x(94)#94  x(95)#95  x(96)#96  x(97)#97  x(98)#98  x(99)#99  x(100)#100 
 x(101)#101  x(102)#102  x(103)#103  x(104)#104  x(105)#105  x(106)#106 
 x(107)#107  x(108)#108  x(109)#109  x(110)#110  x(111)#111  x(112)#112 
 x(113)#113  x(114)#114  x(115)#115  x(116)#116  x(117)#117  x(118)#118 
 x(119)#119  x(120)#120  x(121)#121  x(122)#122  x(123)#123  x(124)#124 
 x(125)#125  x(126)#126  x(127)#127  x(128)#128  x(129)#129  x(130)#130 
 x(131)#131  x(132)#132  x(133)#133  x(134)#134  x(135)#135  x(136)#136 
 x(137)#137  x(138)#138  x(139)#139  x(140)#140  x(141)#141  x(142)#142 
 x(143)#143  x(144)#144  x(145)#145  x(146)#146  x(147)#147  x(148)#148 
 x(149)#149  x(150)#150  x(151)#151  x(152)#152  x(153)#153  x(154)#154 
 x(155)#155  x(156)#156  x(157)#157  x(158)#158  x(159)#159  x(160)#160 
 x(161)#161  x(162)#162  x(163)#163  x(164)#164  x(165)#165  x(166)#166 
 x(167)#167  x(168)#168  x(169)#169  x(170)#170  x(171)#171  x(172)#172 
 x(173)#173  x(174)#174  x(175)#175  x(176)#176  x(177)#177  x(178)#178 
 x(179)#179  x(180)#180  x(181)#181  x(182)#182  x(183)#183  x(184)#184 
 x(185)#185  x(186)#186  x(187)#187  x(188)#188  x(189)#189  x(190)#190 
 x(191)#191  x(192)#192  x(193)#193  x(194)#194  x(195)#195  x(196)#196 
 x(197)#197  x(198)#198  x(199)#199  x(200)#200  x(201)#201  x(202)#202 
 x(203)#203  x(204)#204  x(205)#205  x(206)#206  x(207)#207  x(208)#208 
 x(209)#209  x(210)#210  x(211)#211  x(212)#212  x(213)#213  x(214)#214 
 x(215)#215  x(216)#216  x(217)#217  x(218)#218  x(219)#219  x(220)#220 
 x(221)#221  x(222)#222  x(223)#223  x(224)#224  x(225)#225  x(226)#226 
 x(227)#227  x(228)#228  x(229)#229  x(230)#230  x(231)#231  x(232)#232 
 x(233)#233  x(234)#234  x(235)#235  x(236)#236  x(237)#237  x(238)#238 
 x(239)#239  x(240)#240  x(241)#241  x(242)#242  x(243)#243  x(244)#244 
 x(245)#245  x(246)#246  x(247)#247  x(248)#248  x(249)#249 
End
